% File represents an instance of a Composite Structure problem to be solved by a CP framework
% Created on 2025-03-26 10:41:23.565
T = 54;
n = 16;
m = 24;
edges = [(1, 2),
(5, 6),
(10, 9),
(14, 13),
(3, 2),
(7, 6),
(10, 11),
(14, 15),
(4, 3),
(8, 7),
(12, 11),
(16, 15),
(1, 5),
(5, 9),
(13, 9),
(2, 6),
(10, 6),
(14, 10),
(3, 7),
(7, 11),
(15, 11),
(4, 8),
(8, 12),
(16, 12)];
counts = [|12, 10, 12, 16,
|12, 10, 12, 10,
|12, 16, 12, 10,
|12, 18, 12, 12,
|12, 10, 12, 10,
|12, 10, 12, 6,
|12, 10, 12, 10,
|12, 14, 12, 12,
|12, 10, 12, 8,
|12, 10, 12, 10,
|12, 8, 12, 6,
|12, 14, 12, 6,
|12, 10, 12, 10,
|12, 10, 12, 14,
|12, 8, 12, 12,
|12, 14, 12, 12|];
